StudentsNr = 20;
InstructorsNr = 15;
DaysNr = 2;
SlotsPerDay = 10;
AvailabilitySlotsLenght = 2;
RoomNr = 2;
ProgrammNr = 2;
DegreeNr = 1;
RolesNr = 2;
CoursesNr = 4;
InstructorsProgramm = [{1}, {1, 2}, {1, 2}, {1}, {1}, {2}, {2}, {1}, {2}, {2}, {1}, {2}, {2}, {2}, {1}];
InstructorRolesPerProgramm = [|{4, 8, 11}, {2, 3, 5, 15}|{12}, {2, 3, 6, 10, 13, 14}|];
InstructorsAvailability = [|0, 1, 1, 1, 1, 1, 1, 1, 0, 0, |0, 0, 1, 1, 1, 1, 1, 1, 1, 1, |0, 1, 1, 1, 1, 1, 1, 1, 1, 1, |0, 0, 0, 1, 1, 1, 1, 1, 1, 1, |0, 1, 1, 1, 0, 1, 1, 1, 0, 0, |0, 1, 0, 0, 1, 1, 0, 0, 0, 1, |1, 1, 1, 1, 0, 0, 1, 1, 1, 1, |1, 1, 1, 1, 1, 1, 0, 0, 1, 1, |1, 0, 0, 0, 1, 1, 0, 0, 1, 1, |0, 1, 0, 1, 1, 1, 1, 0, 1, 1, |0, 1, 0, 1, 1, 1, 1, 1, 0, 1, |0, 0, 1, 1, 1, 1, 1, 1, 1, 1, |1, 1, 1, 1, 1, 0, 0, 1, 1, 0, |1, 1, 1, 1, 1, 1, 1, 0, 0, 0, |0, 1, 1, 1, 1, 0, 1, 1, 1, 1|];
StudentsProgramm = [2, 2, 2, 2, 1, 1, 2, 2, 2, 2, 2, 1, 1, 1, 2, 2, 2, 2, 1, 2];
StudentsDegree = [1, 1, 1, 1, 1, 1, 1, 1, 1, 1, 1, 1, 1, 1, 1, 1, 1, 1, 1, 1];
StudentsSupervisorId = [13, 13, 3, 9, 3, 11, 10, 12, 6, 3, 7, 3, 1, 3, 3, 7, 13, 3, 1, 6];
StudentsCourseIds = [{}, {}, {}, {}, {}, {}, {}, {}, {}, {}, {}, {}, {}, {}, {}, {}, {}, {}, {}, {}];
StudentsAvailability = [|1, 1, 1, 1, 1, 1, 1, 1, 0, 1, |0, 1, 1, 1, 1, 1, 1, 1, 1, 1, |1, 1, 1, 1, 1, 1, 1, 1, 1, 1, |0, 1, 0, 1, 1, 1, 1, 1, 1, 1, |0, 0, 1, 1, 1, 1, 1, 0, 0, 1, |1, 1, 1, 1, 1, 1, 1, 1, 1, 0, |1, 1, 1, 1, 1, 1, 1, 1, 1, 1, |0, 1, 1, 1, 1, 1, 1, 1, 0, 0, |0, 0, 1, 1, 1, 1, 0, 1, 1, 1, |0, 1, 1, 1, 1, 1, 1, 1, 1, 1, |1, 0, 0, 1, 1, 1, 1, 1, 1, 1, |0, 0, 0, 1, 1, 1, 1, 1, 1, 0, |1, 1, 1, 1, 1, 1, 1, 1, 0, 1, |0, 1, 1, 1, 1, 1, 1, 1, 1, 1, |1, 1, 1, 1, 1, 1, 0, 1, 1, 1, |1, 1, 1, 1, 1, 1, 1, 1, 1, 1, |1, 1, 1, 1, 1, 1, 1, 1, 0, 1, |0, 1, 1, 1, 0, 1, 1, 0, 1, 1, |0, 0, 1, 1, 1, 1, 1, 1, 1, 1, |1, 1, 1, 1, 1, 1, 1, 1, 1, 1|];
TheoryticalMinCard = [0, 0, 0, 1, 0, 0, 0, 0, 0, 0, 1, 0, 1, 0, 0, 1, 0, 0, 1, 0];
CoursesInstructorIds = [{2, 11}, {2, 5, 8, 11, 12}, {4, 8, 9, 11}, {2, 5, 7, 10, 11, 13}];
RolesDemands = [0, 2];
RolesContinuity = [1];
ExamLen = [2, 2, 2, 2, 2, 2, 2, 2, 2, 2, 2, 2, 2, 2, 2, 2, 2, 2, 2, 2];
LunchTsMinLen = 2;
LunchStarts = [5..6, 15..16];
SupervisorAvailable = 5;
OptimalLunchLenght = [2, 2];
OptimalStartTs = [1, 2];
OptimalFinishTs = [1, 9];
MinimizeRooms = 500;
RolesSoftContinuity = [|1, 2|0, 0|];
SameDegreeInRoom = 10;
Mergeability = 0;
